#######################################
### Exact MIP solver for the HHCRSP ###
#######################################
-- Instance file: new-instances/HHCRSP_100_20_19_1.2_C_C.txt
-- Max threads: 4
-- Time limit: 999999 seconds
-- Use initial solution: No
Trivial flow violations prevented generating 46426 variables.
Model exported.
Version identifier: 20.1.0.0 | 2020-11-10 | 9bedb6d68
CPXPARAM_Threads                                 4
CPXPARAM_TimeLimit                               999999
Parallel mode: deterministic, using up to 4 threads for concurrent optimization:
 * Starting dual Simplex on 1 thread...
 * Starting Barrier on 3 threads...
Tried aggregator 1 time.
LP Presolve eliminated 5280 rows and 1237 columns.
Reduced LP has 48476 rows, 46287 columns, and 566534 nonzeros.
Presolve time = 0.48 sec. (146.53 ticks)
Symmetry aggregator did 53790 additional substitutions.

Iteration log . . .
Iteration:     1   Dual objective     =             0.000000
Iteration:   462   Dual objective     =           125.666667

Dual crossover.
  Dual:  Fixing 283 variables.
      282 DMoves:  Infeasibility  7.83262412e-14  Objective  1.26000000e+02
        0 DMoves:  Infeasibility  7.88258415e-14  Objective  1.26000000e+02
  Dual:  Pushed 10, exchanged 273.
  Primal:  Fixing 98 variables.
       97 PMoves:  Infeasibility  1.66533454e-16  Objective  1.26000000e+02
        0 PMoves:  Infeasibility  3.33066907e-16  Objective  1.26000000e+02
  Primal:  Pushed 50, exchanged 48.

Dual simplex solved model.


Solution status from MIP model:
-- Processing time: 0.807 sec.
-- Memory used: 103.594 MB
-- Best bound: inf
-- Obj value: 126
-- Gap: inf%
-- Total distance: 378
-- Total tardiness: 0
-- Largest tardiness: 0
